tsp_instances/TSP20/instance34.tsp
NODE_COORD_SECTION
0 50 73
1 39 174
2 27 19
3 26 86
4 131 149
5 15 111
6 57 105
7 184 21
8 174 63
9 184 122
10 94 170
11 175 200
12 82 146
13 99 66
14 32 109
15 150 27
16 162 180
17 117 148
18 59 83
19 20 5
