tsp_instances/TSP20/instance34.opt.tour
TOUR_SECTION
1
3
20
4
6
15
7
2
13
11
18
5
17
12
10
9
8
16
14
19
-1